c Pigeonhole principle formula for 5 pigeons and 10 holes
c Generated with `cnfgen`
c (C) 2012-2019 Massimo Lauria <massimo.lauria@uniroma1.it>
c https://massimolauria.net/cnfgen
c
c COMMAND LINE: cnfgen php 5 10
c
p cnf 50 105
1 2 3 4 5 6 7 8 9 10 0
11 12 13 14 15 16 17 18 19 20 0
21 22 23 24 25 26 27 28 29 30 0
31 32 33 34 35 36 37 38 39 40 0
41 42 43 44 45 46 47 48 49 50 0
-1 -11 0
-1 -21 0
-1 -31 0
-1 -41 0
-11 -21 0
-11 -31 0
-11 -41 0
-21 -31 0
-21 -41 0
-31 -41 0
-2 -12 0
-2 -22 0
-2 -32 0
-2 -42 0
-12 -22 0
-12 -32 0
-12 -42 0
-22 -32 0
-22 -42 0
-32 -42 0
-3 -13 0
-3 -23 0
-3 -33 0
-3 -43 0
-13 -23 0
-13 -33 0
-13 -43 0
-23 -33 0
-23 -43 0
-33 -43 0
-4 -14 0
-4 -24 0
-4 -34 0
-4 -44 0
-14 -24 0
-14 -34 0
-14 -44 0
-24 -34 0
-24 -44 0
-34 -44 0
-5 -15 0
-5 -25 0
-5 -35 0
-5 -45 0
-15 -25 0
-15 -35 0
-15 -45 0
-25 -35 0
-25 -45 0
-35 -45 0
-6 -16 0
-6 -26 0
-6 -36 0
-6 -46 0
-16 -26 0
-16 -36 0
-16 -46 0
-26 -36 0
-26 -46 0
-36 -46 0
-7 -17 0
-7 -27 0
-7 -37 0
-7 -47 0
-17 -27 0
-17 -37 0
-17 -47 0
-27 -37 0
-27 -47 0
-37 -47 0
-8 -18 0
-8 -28 0
-8 -38 0
-8 -48 0
-18 -28 0
-18 -38 0
-18 -48 0
-28 -38 0
-28 -48 0
-38 -48 0
-9 -19 0
-9 -29 0
-9 -39 0
-9 -49 0
-19 -29 0
-19 -39 0
-19 -49 0
-29 -39 0
-29 -49 0
-39 -49 0
-10 -20 0
-10 -30 0
-10 -40 0
-10 -50 0
-20 -30 0
-20 -40 0
-20 -50 0
-30 -40 0
-30 -50 0
-40 -50 0
